p cnf 170 203
-1 20 101 104 148 149 154 -156 -166 0 
-2 155 -154 -156 -166 -53 -55 0 
-3 78 126 155 -154 -156 -166 -53 -55 0 
-4 155 -154 -156 -166 -53 -55 0 
-5 9 155 -154 -156 -166 -53 -55 0 
-6 -7 133 155 -154 -156 -166 -53 -55 0 
-8 156 -154 -166 0 
-9 5 155 -154 -156 -166 -53 -55 0 
-10 12 33 128 131 154 -156 -166 0 
-11 110 114 136 -12 10 33 128 131 -13 91 -14 37 40 154 -156 -166 0 
-13 91 -15 22 57 92 96 100 125 -16 154 -156 -166 0 
-17 -18 -19 154 -156 -166 0 
-15 22 57 92 96 100 125 154 -156 -166 0 
-20 1 101 104 148 149 154 -156 -166 0 
-21 69 151 154 -156 -166 0 
-13 91 154 -156 -166 0 
-16 154 -156 -166 0 
-22 15 57 92 96 100 125 -14 37 40 157 -154 -156 -166 -50 -71 -123 0 
-3 78 126 -23 39 46 80 158 -154 -156 -166 -36 -89 -122 0 
-24 38 58 113 115 159 -154 -156 -166 -82 -103 -107 0 
-25 90 160 -154 -156 -166 -72 -102 -147 0 
-22 15 57 92 96 100 125 -14 37 40 161 -154 -156 -166 -26 -94 0 
-26 94 -27 154 -156 -166 0 
-28 74 -29 98 154 -156 -166 0 
-30 156 -154 -166 0 
-31 156 -154 -166 0 
-4 154 -156 -166 0 
-32 154 -156 -166 0 
-33 10 12 128 131 154 -156 -166 0 
-34 154 -156 -166 0 
-35 156 -154 -166 0 
-36 89 122 156 -154 -166 0 
-37 14 40 155 -154 -156 -166 -53 -55 0 
-38 24 58 113 115 -14 37 40 154 -156 -166 0 
-14 37 40 155 -154 -156 -166 -53 -55 0 
-16 -14 37 40 154 -156 -166 0 
-13 91 -39 23 46 80 154 -156 -166 0 
-40 14 37 155 -154 -156 -166 -53 -55 0 
-41 45 134 155 -154 -156 -166 -53 -55 0 
-37 14 40 -42 155 -154 -156 -166 -53 -55 0 
-43 -44 130 -45 41 134 155 -154 -156 -166 -53 -55 0 
-39 23 46 80 155 -154 -156 -166 -53 -55 0 
-14 37 40 -42 155 -154 -156 -166 -53 -55 0 
-46 23 39 80 155 -154 -156 -166 -53 -55 0 
-6 -47 -48 -11 110 114 136 155 -154 -156 -166 -53 -55 0 
-14 37 40 -49 155 -154 -156 -166 -53 -55 0 
-49 155 -154 -156 -166 -53 -55 0 
-50 71 123 -31 162 -154 -156 -166 -3 -78 -126 0 
-51 155 -154 -156 -166 -53 -55 0 
-52 155 -154 -156 -166 -53 -55 0 
-53 55 163 -164 -165 0 
-54 155 -154 -156 -166 -53 -55 0 
-54 156 -154 -166 0 
-53 55 164 -163 -165 0 
-55 53 165 -163 -164 0 
-56 88 155 -154 -156 -166 -53 -55 0 
-57 15 22 92 96 100 125 164 -163 -165 0 
-58 24 38 113 115 164 -163 -165 0 
-55 53 166 -154 -156 0 
-4 -40 14 37 154 -156 -166 0 
-59 -23 39 46 80 154 -156 -166 0 
-60 -40 14 37 154 -156 -166 0 
-61 76 152 154 -156 -166 0 
-62 84 -63 154 -156 -166 0 
-64 155 -154 -156 -166 -53 -55 0 
-65 106 155 -154 -156 -166 -53 -55 0 
-66 155 -154 -156 -166 -53 -55 0 
-67 155 -154 -156 -166 -53 -55 0 
-68 155 -154 -156 -166 -53 -55 0 
-38 24 58 113 115 -16 -14 37 40 154 -156 -166 0 
-69 21 151 -70 155 -154 -156 -166 -53 -55 0 
-71 50 123 -72 102 147 -37 14 40 155 -154 -156 -166 -53 -55 0 
-37 14 40 -73 -42 155 -154 -156 -166 -53 -55 0 
-35 167 0 
-74 28 167 0 
-52 167 0 
-41 45 134 -14 37 40 155 -154 -156 -166 -53 -55 0 
-75 77 85 119 135 137 138 139 140 141 142 143 144 145 -9 5 156 -154 -166 0 
-76 61 152 167 0 
-77 75 85 119 135 137 138 139 140 141 142 143 144 145 -16 154 -156 -166 0 
-26 94 -78 3 126 -79 154 -156 -166 0 
-80 23 39 46 155 -154 -156 -166 -53 -55 0 
-81 120 155 -154 -156 -166 -53 -55 0 
-82 103 107 155 -154 -156 -166 -53 -55 0 
-37 14 40 -83 86 155 -154 -156 -166 -53 -55 0 
-12 10 33 128 131 -84 62 -20 1 101 104 148 149 154 -156 -166 0 
-9 5 167 0 
-85 75 77 119 135 137 138 139 140 141 142 143 144 145 154 -156 -166 0 
-80 23 39 46 168 -53 -55 -154 -156 -166 0 
-37 14 40 -73 -86 83 -42 168 -53 -55 -154 -156 -166 0 
-31 -87 169 -28 -74 -154 -156 -166 0 
-88 56 155 -154 -156 -166 -53 -55 0 
-53 55 156 -154 -166 0 
-89 36 122 156 -154 -166 0 
-87 155 -154 -156 -166 -53 -55 0 
-51 -49 155 -154 -156 -166 -53 -55 0 
-90 25 -91 13 -16 -23 39 46 80 170 -154 -156 -166 -35 0 
-39 23 46 80 163 -164 -165 0 
-92 15 22 57 96 100 125 -93 154 -156 -166 0 
-94 26 -14 37 40 154 -156 -166 0 
-95 -14 37 40 154 -156 -166 0 
-96 15 22 57 92 100 125 154 -156 -166 0 
-62 84 154 -156 -166 0 
-78 3 126 -79 -14 37 40 154 -156 -166 0 
-10 12 33 128 131 -16 -14 37 40 154 -156 -166 0 
-24 38 58 113 115 154 -156 -166 0 
-24 38 58 113 115 169 -28 -74 -154 -156 -166 0 
-10 12 33 128 131 155 -154 -156 -166 -53 -55 0 
-97 -98 29 154 -156 -166 0 
-20 1 101 104 148 149 154 -156 -166 0 
-99 109 154 -156 -166 0 
-100 15 22 57 92 96 125 154 -156 -166 0 
-52 -38 24 58 113 115 -101 1 20 104 148 149 154 -156 -166 0 
-102 72 147 -14 37 40 154 -156 -166 0 
-103 82 107 154 -156 -166 0 
-33 10 12 128 131 -101 1 20 104 148 149 154 -156 -166 0 
-52 -16 -104 1 20 101 148 149 154 -156 -166 0 
-105 155 -154 -156 -166 -53 -55 0 
-7 133 -14 37 40 154 -156 -166 0 
-17 -23 39 46 80 154 -156 -166 0 
-106 65 154 -156 -166 0 
-107 82 103 167 0 
-108 154 -156 -166 0 
-109 99 155 -154 -156 -166 -53 -55 0 
-74 28 155 -154 -156 -166 -53 -55 0 
-110 11 114 136 155 -154 -156 -166 -53 -55 0 
-37 14 40 -73 -83 86 155 -154 -156 -166 -53 -55 0 
-11 110 114 136 155 -154 -156 -166 -53 -55 0 
-31 164 -163 -165 0 
-111 154 -156 -166 0 
-112 -16 -14 37 40 158 -154 -156 -166 -36 -89 -122 0 
-112 155 -154 -156 -166 -53 -55 0 
-53 55 -113 24 38 58 115 156 -154 -166 0 
-114 11 110 136 156 -154 -166 0 
-115 24 38 58 113 -35 156 -154 -166 0 
-116 129 156 -154 -166 0 
-14 37 40 -86 83 -117 -68 155 -154 -156 -166 -53 -55 0 
-51 -39 23 46 80 155 -154 -156 -166 -53 -55 0 
-83 86 -73 155 -154 -156 -166 -53 -55 0 
-73 -37 14 40 -83 86 155 -154 -156 -166 -53 -55 0 
-31 163 -164 -165 0 
-118 167 0 
-10 12 33 128 131 -1 20 101 104 148 149 154 -156 -166 0 
-119 75 77 85 135 137 138 139 140 141 142 143 144 145 154 -156 -166 0 
-120 81 -121 154 -156 -166 0 
-122 36 89 156 -154 -166 0 
-123 50 71 156 -154 -166 0 
-63 -8 156 -154 -166 0 
-8 -110 11 114 136 156 -154 -166 0 
-48 -124 156 -154 -166 0 
-10 12 33 128 131 -4 -40 14 37 154 -156 -166 0 
-1 20 101 104 148 149 154 -156 -166 0 
-125 15 22 57 92 96 100 154 -156 -166 0 
-126 3 78 -41 45 134 156 -154 -166 0 
-38 24 58 113 115 154 -156 -166 0 
-127 154 -156 -166 0 
-83 86 154 -156 -166 0 
-1 20 101 104 148 149 154 -156 -166 0 
-102 72 147 154 -156 -166 0 
-128 10 12 33 131 154 -156 -166 0 
-129 116 -35 -14 37 40 155 -154 -156 -166 -53 -55 0 
-61 76 152 -130 44 155 -154 -156 -166 -53 -55 0 
-116 129 155 -154 -156 -166 -53 -55 0 
-5 9 -131 10 12 33 128 155 -154 -156 -166 -53 -55 0 
-5 9 -132 154 -156 -166 0 
-133 7 154 -156 -166 0 
-41 45 134 -37 14 40 155 -154 -156 -166 -53 -55 0 
-37 14 40 -41 45 134 155 -154 -156 -166 -53 -55 0 
-39 23 46 80 155 -154 -156 -166 -53 -55 0 
-134 41 45 -14 37 40 155 -154 -156 -166 -53 -55 0 
-14 37 40 -41 45 134 155 -154 -156 -166 -53 -55 0 
-37 14 40 -51 155 -154 -156 -166 -53 -55 0 
-5 9 167 0 
-135 75 77 85 119 137 138 139 140 141 142 143 144 145 167 0 
-75 77 85 119 135 137 138 139 140 141 142 143 144 145 167 0 
-136 11 110 114 167 0 
-137 75 77 85 119 135 138 139 140 141 142 143 144 145 167 0 
-138 75 77 85 119 135 137 139 140 141 142 143 144 145 167 0 
-139 75 77 85 119 135 137 138 140 141 142 143 144 145 167 0 
-11 110 114 136 167 0 
-110 11 114 136 167 0 
-140 75 77 85 119 135 137 138 139 141 142 143 144 145 167 0 
-141 75 77 85 119 135 137 138 139 140 142 143 144 145 167 0 
-142 75 77 85 119 135 137 138 139 140 141 143 144 145 167 0 
-143 75 77 85 119 135 137 138 139 140 141 142 144 145 167 0 
-144 75 77 85 119 135 137 138 139 140 141 142 143 145 167 0 
-145 75 77 85 119 135 137 138 139 140 141 142 143 144 167 0 
-73 -37 14 40 -86 83 -42 155 -154 -156 -166 -53 -55 0 
-146 156 -154 -166 0 
-2 -8 155 -154 -156 -166 -53 -55 0 
-115 24 38 58 113 156 -154 -166 0 
-147 72 102 154 -156 -166 0 
-148 1 20 101 104 149 155 -154 -156 -166 -53 -55 0 
-149 1 20 101 104 148 154 -156 -166 0 
-150 154 -156 -166 0 
-7 133 154 -156 -166 0 
-151 21 69 154 -156 -166 0 
-152 61 76 -1 20 101 104 148 149 154 -156 -166 0 
-48 155 -154 -156 -166 -53 -55 0 
-46 23 39 80 155 -154 -156 -166 -53 -55 0 
-37 14 40 -42 168 -53 -55 -154 -156 -166 0 
-153 -83 86 155 -154 -156 -166 -53 -55 0 
-43 -44 130 -14 37 40 155 -154 -156 -166 -53 -55 0 
